2025-10-12 00:21:03,219 - INFO - 📌 第一个 epoch：默认所有模块使用 checkpoint
2025-10-12 00:23:26,980 - INFO - Epoch 1 completed in 143.781756 seconds
2025-10-12 00:23:59,984 - INFO - torch.cuda.max_memory_reserved() : 15.2421875
2025-10-12 00:26:23,167 - INFO - 
[🔁 拟合反向传播时间模型]
2025-10-12 00:26:23,167 - INFO - 总反向传播时间: 142.799154s
2025-10-12 00:26:23,167 - INFO - 拟合模型: backward_total ≈ 2 × (A + B) + b
2025-10-12 00:26:23,168 - INFO - A = 124.347877, B = 12.112170, b = 6.339107s
2025-10-12 00:26:23,190 - INFO - Set parameter LicenseID to value 2706656
2025-10-12 00:26:23,215 - INFO - Set parameter LogToConsole to value 1
2025-10-12 00:26:23,215 - INFO - Set parameter LogFile to value ""
2025-10-12 00:26:23,215 - INFO - Set parameter Threads to value 12
2025-10-12 00:26:23,215 - INFO - Set parameter TimeLimit to value 3600
2025-10-12 00:26:23,215 - INFO - Set parameter OptimalityTol to value 0.0001
2025-10-12 00:26:23,215 - INFO - Set parameter IntFeasTol to value 1e-05
2025-10-12 00:26:23,216 - INFO - Set parameter StartNodeLimit to value 10000000
2025-10-12 00:26:23,280 - INFO - Set parameter TimeLimit to value 3600
2025-10-12 00:26:23,280 - INFO - 
2025-10-12 00:26:23,280 - INFO - 
2025-10-12 00:26:23,280 - INFO - Restarting solve
2025-10-12 00:26:23,280 - INFO - 
2025-10-12 00:26:23,280 - INFO - 
2025-10-12 00:26:23,282 - INFO - Gurobi Optimizer version 12.0.3 build v12.0.3rc0 (linux64 - "Ubuntu 20.04.6 LTS")
2025-10-12 00:26:23,282 - INFO - 
2025-10-12 00:26:23,282 - INFO - CPU model: Intel(R) Xeon(R) Platinum 8260 CPU @ 2.40GHz, instruction set [SSE2|AVX|AVX2|AVX512]
2025-10-12 00:26:23,282 - INFO - Thread count: 48 physical cores, 96 logical processors, using up to 12 threads
2025-10-12 00:26:23,282 - INFO - 
2025-10-12 00:26:23,282 - INFO - Non-default parameters:
2025-10-12 00:26:23,282 - INFO - TimeLimit  3600
2025-10-12 00:26:23,282 - INFO - OptimalityTol  0.0001
2025-10-12 00:26:23,282 - INFO - StartNodeLimit  10000000
2025-10-12 00:26:23,282 - INFO - Threads  12
2025-10-12 00:26:23,282 - INFO - 
2025-10-12 00:26:23,282 - INFO - Optimize a model with 5603 rows, 3584 columns and 15200 nonzeros
2025-10-12 00:26:23,282 - INFO - Model fingerprint: 0xbea48f52
2025-10-12 00:26:23,283 - INFO - Variable types: 1024 continuous, 2560 integer (2560 binary)
2025-10-12 00:26:23,283 - INFO - Coefficient statistics:
2025-10-12 00:26:23,283 - INFO -   Matrix range     [1e+00, 5e+15]
2025-10-12 00:26:23,283 - INFO -   Objective range  [7e+04, 2e+06]
2025-10-12 00:26:23,283 - INFO -   Bounds range     [1e+00, 2e+16]
2025-10-12 00:26:23,283 - INFO -   RHS range        [1e+00, 2e+16]
2025-10-12 00:26:23,283 - INFO - Warning: Model contains large matrix coefficient range
2025-10-12 00:26:23,283 - INFO - Warning: Model contains large rhs
2025-10-12 00:26:23,283 - INFO - Warning: Model contains large bounds
2025-10-12 00:26:23,283 - INFO -          Consider reformulating model or setting NumericFocus parameter
2025-10-12 00:26:23,283 - INFO -          to avoid numerical issues.
2025-10-12 00:26:23,298 - INFO - Presolve removed 4283 rows and 1964 columns
2025-10-12 00:26:23,298 - INFO - Presolve time: 0.01s
2025-10-12 00:26:23,298 - INFO - Presolved: 1320 rows, 1620 columns, 4514 nonzeros
2025-10-12 00:26:23,300 - INFO - Variable types: 0 continuous, 1620 integer (1095 binary)
2025-10-12 00:26:23,310 - INFO - 
2025-10-12 00:26:23,310 - INFO - Root relaxation: objective 2.466049e+07, 444 iterations, 0.00 seconds (0.00 work units)
2025-10-12 00:26:23,321 - INFO - 
2025-10-12 00:26:23,321 - INFO -     Nodes    |    Current Node    |     Objective Bounds      |     Work
2025-10-12 00:26:23,321 - INFO -  Expl Unexpl |  Obj  Depth IntInf | Incumbent    BestBd   Gap | It/Node Time
2025-10-12 00:26:23,321 - INFO - 
2025-10-12 00:26:23,321 - INFO -      0     0 2.4660e+07    0   69          - 2.4660e+07      -     -    0s
2025-10-12 00:26:23,362 - INFO -      0     0 2.4913e+07    0   67          - 2.4913e+07      -     -    0s
2025-10-12 00:26:23,376 - INFO -      0     0 2.4926e+07    0   81          - 2.4926e+07      -     -    0s
2025-10-12 00:26:23,393 - INFO -      0     0 2.4926e+07    0   85          - 2.4926e+07      -     -    0s
2025-10-12 00:26:23,395 - INFO -      0     0 2.4956e+07    0   29          - 2.4956e+07      -     -    0s
2025-10-12 00:26:23,396 - INFO -      0     0 2.4956e+07    0   82          - 2.4956e+07      -     -    0s
2025-10-12 00:26:23,408 - INFO -      0     0 2.4960e+07    0  115          - 2.4960e+07      -     -    0s
2025-10-12 00:26:23,417 - INFO -      0     0 2.4961e+07    0  162          - 2.4961e+07      -     -    0s
2025-10-12 00:26:23,422 - INFO -      0     0 2.4961e+07    0  211          - 2.4961e+07      -     -    0s
2025-10-12 00:26:23,423 - INFO -      0     0 2.4961e+07    0  210          - 2.4961e+07      -     -    0s
2025-10-12 00:26:23,433 - INFO -      0     0 2.4961e+07    0  184          - 2.4961e+07      -     -    0s
2025-10-12 00:26:23,448 - INFO -      0     0 2.4961e+07    0  239          - 2.4961e+07      -     -    0s
2025-10-12 00:26:23,503 - INFO -      0     2 2.4961e+07    0  239          - 2.4961e+07      -     -    0s
2025-10-12 00:26:23,543 - INFO - *  173   194              15    2.512515e+07 2.4969e+07  0.62%   4.5    0s
2025-10-12 00:26:23,568 - INFO - *  442   292              33    2.496873e+07 2.4969e+07  0.00%   3.4    0s
2025-10-12 00:26:23,569 - INFO - 
2025-10-12 00:26:23,569 - INFO - Cutting planes:
2025-10-12 00:26:23,569 - INFO -   Cover: 27
2025-10-12 00:26:23,569 - INFO -   GUB cover: 1
2025-10-12 00:26:23,570 - INFO - 
2025-10-12 00:26:23,570 - INFO - Explored 687 nodes (2301 simplex iterations) in 0.29 seconds (0.20 work units)
2025-10-12 00:26:23,570 - INFO - Thread count was 12 (of 96 available processors)
2025-10-12 00:26:23,570 - INFO - 
2025-10-12 00:26:23,570 - INFO - Solution count 2: 2.49687e+07 2.51252e+07 
2025-10-12 00:26:23,570 - INFO - 
2025-10-12 00:26:23,570 - INFO - Optimal solution found (tolerance 1.00e-04)
2025-10-12 00:26:23,570 - INFO - Warning: max constraint violation (5.0000e-01) exceeds tolerance
2025-10-12 00:26:23,570 - INFO -          (possibly due to large matrix coefficients)
2025-10-12 00:26:23,570 - INFO - Best objective 2.496873400000e+07, best bound 2.496873400000e+07, gap 0.0000%
2025-10-12 00:26:23,583 - INFO - 规划前的显存GB：20.0
2025-10-12 00:26:23,583 - INFO - 规划后的显存GB：17.162565231323242
2025-10-12 00:26:23,583 - INFO - ✅ 最优策略：[0, 1, 1, 1, 1, 1, 1, 1, 0, 1, 0, 0, 0, 0, 0, 0]
2025-10-12 00:26:23,583 - INFO - 📌 checkpoint 的欧氏长度:, [128]
2025-10-12 00:26:23,583 - INFO - 📌 checkpoint 的余弦长度:, [128, 777, 1101, 1426, 1750, 2075, 2400]
2025-10-12 00:26:23,583 - INFO - 💾 最终显存峰值：%.2f MB % 27442.5994720459
2025-10-12 00:26:23,596 - INFO - Epoch 2 completed in 143.611203 seconds
2025-10-12 00:26:23,596 - INFO - torch.cuda.max_memory_reserved() : 15.2421875
2025-10-12 00:28:17,549 - INFO - Epoch 3 completed in 113.951616 seconds
2025-10-12 00:28:17,549 - INFO - 
====================== [第1个 Epoch 收集统计数据] ======================
2025-10-12 00:28:17,549 - INFO - 
🔍 EUCLIDEAN modules:
2025-10-12 00:28:17,549 - INFO - [Shapelet 128] forward_avg=0.003268s over 278 calls | peak=545.46MB | final=0.00MB
2025-10-12 00:28:17,549 - INFO - [Shapelet 452] forward_avg=0.008139s over 278 calls | peak=1696.97MB | final=0.00MB
2025-10-12 00:28:17,549 - INFO - [Shapelet 777] forward_avg=0.011975s over 278 calls | peak=2541.23MB | final=0.00MB
2025-10-12 00:28:17,549 - INFO - [Shapelet 1101] forward_avg=0.014335s over 278 calls | peak=3076.86MB | final=0.00MB
2025-10-12 00:28:17,549 - INFO - [Shapelet 1426] forward_avg=0.015455s over 278 calls | peak=3302.11MB | final=0.00MB
2025-10-12 00:28:17,549 - INFO - [Shapelet 1750] forward_avg=0.014945s over 278 calls | peak=3220.47MB | final=0.00MB
2025-10-12 00:28:17,549 - INFO - [Shapelet 2075] forward_avg=0.013190s over 278 calls | peak=2830.50MB | final=0.00MB
2025-10-12 00:28:17,549 - INFO - [Shapelet 2400] forward_avg=0.009772s over 278 calls | peak=2129.31MB | final=0.00MB
2025-10-12 00:28:17,549 - INFO - 
🔍 COSINE modules:
2025-10-12 00:28:17,549 - INFO - [Shapelet 128] forward_avg=0.002364s over 278 calls | peak=360.86MB | final=0.00MB
2025-10-12 00:28:17,549 - INFO - [Shapelet 452] forward_avg=0.005124s over 278 calls | peak=1127.04MB | final=0.00MB
2025-10-12 00:28:17,549 - INFO - [Shapelet 777] forward_avg=0.007555s over 278 calls | peak=1688.97MB | final=0.00MB
2025-10-12 00:28:17,549 - INFO - [Shapelet 1101] forward_avg=0.008975s over 278 calls | peak=2044.93MB | final=0.00MB
2025-10-12 00:28:17,549 - INFO - [Shapelet 1426] forward_avg=0.009733s over 278 calls | peak=2194.08MB | final=0.00MB
2025-10-12 00:28:17,549 - INFO - [Shapelet 1750] forward_avg=0.009410s over 278 calls | peak=2138.55MB | final=0.00MB
2025-10-12 00:28:17,549 - INFO - [Shapelet 2075] forward_avg=0.008511s over 278 calls | peak=1876.87MB | final=0.00MB
2025-10-12 00:28:17,549 - INFO - [Shapelet 2400] forward_avg=0.006349s over 278 calls | peak=1408.89MB | final=0.00MB
2025-10-12 00:28:17,549 - INFO - 
🔍 CROSS modules:
2025-10-12 00:28:17,549 - INFO - [Shapelet 128] forward_avg=0.000691s over 278 calls
2025-10-12 00:28:17,549 - INFO - [Shapelet 452] forward_avg=0.001090s over 278 calls
2025-10-12 00:28:17,550 - INFO - [Shapelet 777] forward_avg=0.001657s over 278 calls
2025-10-12 00:28:17,550 - INFO - [Shapelet 1101] forward_avg=0.002331s over 278 calls
2025-10-12 00:28:17,550 - INFO - [Shapelet 1426] forward_avg=0.003040s over 278 calls
2025-10-12 00:28:17,550 - INFO - [Shapelet 1750] forward_avg=0.003689s over 278 calls
2025-10-12 00:28:17,550 - INFO - [Shapelet 2075] forward_avg=0.004347s over 278 calls
2025-10-12 00:28:17,550 - INFO - [Shapelet 2400] forward_avg=0.004940s over 278 calls
2025-10-12 00:28:17,550 - INFO - 
💾 模型第一次反向传播阶段的显存峰值（所有模块中的最大值）: 15665.22 MB
2025-10-12 00:28:17,550 - INFO - 
💾 模型初始显存: 104.49 MB
2025-10-12 00:28:17,550 - INFO - =======================================================================

2025-10-12 00:28:17,550 - INFO - torch.cuda.max_memory_reserved() : 22.794921875
2025-10-12 00:30:12,900 - INFO - Epoch 4 completed in 115.349117 seconds
2025-10-12 00:30:12,900 - INFO - torch.cuda.max_memory_reserved() : 22.794921875
2025-10-12 00:32:06,958 - INFO - Epoch 5 completed in 114.057841 seconds
2025-10-12 00:32:06,959 - INFO - torch.cuda.max_memory_reserved() : 22.794921875
2025-10-12 00:34:02,297 - INFO - Epoch 6 completed in 115.338133 seconds
2025-10-12 00:34:02,298 - INFO - torch.cuda.max_memory_reserved() : 22.794921875
2025-10-12 00:35:56,721 - INFO - Epoch 7 completed in 114.422400 seconds
2025-10-12 00:35:56,721 - INFO - torch.cuda.max_memory_reserved() : 22.794921875
2025-10-12 00:37:52,011 - INFO - Epoch 8 completed in 115.289518 seconds
2025-10-12 00:37:52,012 - INFO - torch.cuda.max_memory_reserved() : 22.794921875
2025-10-12 00:39:46,453 - INFO - Epoch 9 completed in 114.440097 seconds
2025-10-12 00:39:46,453 - INFO - torch.cuda.max_memory_reserved() : 22.794921875
2025-10-12 00:41:39,445 - INFO - Epoch 10 completed in 112.991595 seconds
2025-10-12 00:42:12,084 - INFO - torch.cuda.max_memory_reserved() : 22.794921875
2025-10-12 00:42:12,085 - INFO - !!!采用策略后的几个epoch 平均时间:114.48003962635994
2025-10-12 00:42:12,085 - INFO - 



